
Gurobi 12.0.2 (win64) logging started Sat Feb  7 07:42:32 2026

Set parameter LogFile to value "gurobi_stats_logs\m20n10\sample_data_30_size_10_PCP.log"
Set parameter MIPGap to value 0.01
Set parameter TimeLimit to value 0
Gurobi Optimizer version 12.0.2 build v12.0.2rc0 (win64 - Windows 11+.0 (26200.2))

CPU model: AMD Ryzen 7 8845H w/ Radeon 780M Graphics, instruction set [SSE2|AVX|AVX2|AVX512]
Thread count: 8 physical cores, 16 logical processors, using up to 16 threads

Non-default parameters:
TimeLimit  0
MIPGap  0.01

Optimize a model with 83410 rows, 9335 columns and 340756 nonzeros
Model fingerprint: 0x09a88627
Variable types: 7035 continuous, 2300 integer (2300 binary)
Coefficient statistics:
  Matrix range     [1e-02, 2e+00]
  Objective range  [4e-03, 1e-01]
  Bounds range     [1e+00, 1e+00]
  RHS range        [7e-02, 2e+00]

Explored 0 nodes (0 simplex iterations) in 0.00 seconds (0.00 work units)
Thread count was 1 (of 16 available processors)

Solution count 0

Time limit reached
Best objective -, best bound -, gap -
